(set-logic QF_BV)
(declare-fun _substvar_6490_ () Bool)
(declare-fun _substvar_6499_ () Bool)
(declare-fun _substvar_6534_ () Bool)
(declare-fun _substvar_3578_ () (_ BitVec 32))
(declare-fun _substvar_3575_ () (_ BitVec 32))
(declare-fun _substvar_6460_ () Bool)
(declare-fun _substvar_5527_ () (_ BitVec 8))
(declare-fun _substvar_6618_ () Bool)
(declare-fun _substvar_6461_ () Bool)
(declare-fun _substvar_6522_ () Bool)
(declare-fun _substvar_6586_ () Bool)
(declare-fun _substvar_6502_ () Bool)
(declare-fun _substvar_3592_ () (_ BitVec 32))
(declare-fun _substvar_6504_ () Bool)
(declare-fun _substvar_6606_ () Bool)
(declare-fun _substvar_6500_ () Bool)
(declare-fun _substvar_6501_ () Bool)
(assert (let ( (?v_205 (bvadd _substvar_3578_ (bvadd _substvar_3575_ (_ bv28 32))))) (let ((?v_358 (bvadd ?v_205 (_ bv8 32)))) (let ( (?v_336 (bvadd _substvar_3592_ (_ bv7 32))) (?v_206 (bvadd (_ bv0 32) ?v_358))) (and true (= _substvar_3592_ (bvor (bvshl (bvor (_ bv0 32) ((_ zero_extend 24) _substvar_5527_)) (_ bv8 32)) (_ bv0 32))) true true true true true _substvar_6618_ true true true true true true true true true true true true true true true true true true true true true _substvar_6534_ true true true true true true true true true true true true true true true true true true true true true true true true true true true true true true _substvar_6522_ _substvar_6606_ true true true true true true true true true true true true true true true true true true true true true true true true true true true true true true true true true true true true true true true true true true true true true true true true true true true true true true true true true true true true true true true true true true true true true true true true true true true true true true true true true true true true true true true true true true true true true true true true true true true true true true true true true true true true true true true _substvar_6504_ true true true true true true true true true true true true true true true true true true true true true _substvar_6502_ true true true _substvar_6501_ _substvar_6500_ true true true true true true true true true true true true true true _substvar_6499_ true true true true true true true true true true true true true true true true true true true true true true true true true true true true true true true true true true true true true true true true true true true true true true true true true true true true true true true true true true true true true true true true true true true true true true true true true true true true true true true true true true true true true true true true true true true true true true true true true true true true true true true true true true true true true true true true true true true true true true true true true true true true true true true true true true true true true true true true true true true true true true true true true true true true true true true true true true true true true true true true true true true true true true true true true true true true true true true true true true true true true true true true true true true true true true true true true true true true true true true true true true true true true true true true true true true true true true true true true true true true true true true true true true true true true true true true true true true true true true true true true true true true true true true true true true true true true true true true true true true true true true true true true true true true true true true true true true true true _substvar_6490_ true true true true true true true true true true true true true true true true true true true true true true true true true true true true true true true true true true true true true true true true true true true true true true true true true true true true true true true true true true true true true true true true true true true true true true true true true true true true true true true true true true true true true true true true true true true true true true true true true true true true true true true true true true true true true true true true true true true true true true true true true true true true true true true true true true true true true true true true true true true true true true true true true true true true true true true true true true true true true true true true true true true true true true true true true true true true true true true true true true true true true true true true true true true true true true true true true true true true true true true true true true true true true true true true true true true true true true true true true true true true true true true true true true true true true true true true true true true true true true true true true true true true true true true true true true true true true true true true true true true true true true true true true true true true true true true true true true true true true true true true true true true true true true true true true true true true true true true true true true true true true true true true true true true true true true true true true true true true true true true true true true true true true true true true true true true true true true true true true true true true true true true true true true true true true true true true true true true true true true true true true true true true true true true true true true true true true true true true true true true true true true true true true true true (bvule (_ bv65536 32) ?v_206) true (bvule ?v_206 ?v_336) (bvult (_ bv0 32) ?v_205) (bvule ?v_205 (_ bv65536 32)) true true (bvule ?v_205 ?v_336) true true true true true true true true true true true true true true true true _substvar_6586_ true true true true true true true true true true true true true true true true true true true true true true true true true true true true true true true true true true true true true true true true true true true true true true true true true true true _substvar_6461_ true true true true true true true true true true true true true true true true true true true true true true true true true true true true true true true true true true true true true true true true true true _substvar_6460_ true true true true true true true true true true true true true true true true true true true true true true true true true true true true true true true true true true true true true true true true true true true true true true true true true true true true true true true true true true true true true true true true true true true true true true true true true true true true true true true true true true true true true true true true true true true true true true true true true true true true true true true true true true true true true true true true true true true true true true true true true true true true true true true true true true true true true true)))))
(check-sat)
(exit)
